(set-logic QF_LIA)
(declare-fun x0 () Int)
(declare-fun x1 () Int)
(declare-fun x2 () Int)
(declare-fun x3 () Int)
(declare-fun x4 () Int)
(declare-fun x5 () Int)
(declare-fun x6 () Int)
(declare-fun x7 () Int)
(declare-fun x8 () Int)
(declare-fun x9 () Int)
(declare-fun A0 () Bool)
(declare-fun A2 () Bool)
(declare-fun A3 () Bool)
(declare-fun A5 () Bool)
(declare-fun A6 () Bool)
(declare-fun A8 () Bool)
(assert (let ((.def_0 (not A8))) (let ((.def_1 (not A5))) (let ((.def_2 (and .def_1 .def_0))) (let ((.def_3 (not .def_2))) (let ((.def_4 (* (- 1) x0))) (let ((.def_5 (* 1 x5))) (let ((.def_6 (+ .def_5 .def_4))) (let ((.def_7 (< .def_6 (- 1)))) (let ((.def_8 (and .def_7 A6))) (let ((.def_9 (or .def_8 .def_3))) (let ((.def_10 (not .def_9))) (let ((.def_11 (and .def_1 .def_1))) (let ((.def_12 (not .def_11))) (let ((.def_13 (* (- 1) x3))) (let ((.def_14 (< .def_13 (- 1)))) (let ((.def_15 (not .def_14))) (let ((.def_16 (and A0 .def_15))) (let ((.def_17 (and .def_16 .def_12))) (let ((.def_18 (not .def_17))) (let ((.def_19 (and .def_18 .def_10))) (let ((.def_20 (* (- 1) x6))) (let ((.def_21 (< .def_20 (- 1)))) (let ((.def_22 (or .def_21 A2))) (let ((.def_23 (not .def_22))) (let ((.def_24 (* (- 1) x4))) (let ((.def_25 (< .def_24 1))) (let ((.def_26 (not A3))) (let ((.def_27 (or .def_26 .def_25))) (let ((.def_28 (not .def_27))) (let ((.def_29 (and .def_28 .def_23))) (let ((.def_30 (* 1 x0))) (let ((.def_31 (+ .def_30 .def_24))) (let ((.def_32 (< .def_31 (- 1)))) (let ((.def_33 (= A0 .def_32))) (let ((.def_34 (not .def_33))) (let ((.def_35 (* (- 1) x9))) (let ((.def_36 (< .def_35 1))) (let ((.def_37 (and A2 .def_36))) (let ((.def_38 (not .def_37))) (let ((.def_39 (and .def_38 .def_34))) (let ((.def_40 (or .def_39 .def_29))) (let ((.def_41 (or .def_40 .def_19))) (let ((.def_42 (not .def_41))) (let ((.def_43 (<= x9 1))) (let ((.def_44 (<= 0 x9))) (let ((.def_45 (<= x8 1))) (let ((.def_46 (<= 0 x8))) (let ((.def_47 (<= x7 1))) (let ((.def_48 (<= 0 x7))) (let ((.def_49 (<= x6 1))) (let ((.def_50 (<= 0 x6))) (let ((.def_51 (<= x5 1))) (let ((.def_52 (<= 0 x5))) (let ((.def_53 (<= x4 1))) (let ((.def_54 (<= 0 x4))) (let ((.def_55 (<= x3 1))) (let ((.def_56 (<= 0 x3))) (let ((.def_57 (<= x2 1))) (let ((.def_58 (<= 0 x2))) (let ((.def_59 (<= x1 1))) (let ((.def_60 (<= 0 x1))) (let ((.def_61 (<= x0 1))) (let ((.def_62 (<= 0 x0))) (let ((.def_63 (and .def_62 .def_61 .def_60 .def_59 .def_58 .def_57 .def_56 .def_55 .def_54 .def_53 .def_52 .def_51 .def_50 .def_49 .def_48 .def_47 .def_46 .def_45 .def_44 .def_43 .def_42))) .def_63)))))))))))))))))))))))))))))))))))))))))))))))))))))))))))))))))
(check-sat)
